TYPE : Vertex Cover
DIMENSION: 21
EDGE_DATA_SECTION:
0 3
0 7
0 9
0 16
1 5
1 8
1 10
1 13
2 5
2 14
2 15
2 18
2 20
3 17
4 11
4 14
5 11
5 17
7 14
8 17
10 14
10 16
12 16
14 18
-1
VERTEX_DEGREE:
4.0 4.0 5.0 2.0 2.0 4.0 0.0 2.0 2.0 1.0 3.0 2.0 1.0 1.0 5.0 1.0 3.0 3.0 2.0 0.0 1.0
VERTEX_COVER:
0 1 2 11 14 16 17
EOF
